424 5
10 10 10 10 10 

0 0 0 0 0 0 5 2 14 26 38 50 
0 0 0 0 0 0 3 3 6 7 
9 0 0 3 0 0 1 4 
6 0 0 2 0 0 1 5 
3 0 0 3 0 0 3 10 9 8 
8 0 0 8 0 0 2 10 9 
4 0 0 2 0 0 1 8 
8 0 0 4 0 0 2 12 11 
8 0 0 10 0 0 2 12 11 
4 0 0 5 0 0 1 11 
6 0 0 8 0 0 1 13 
8 0 0 5 0 0 1 13 
0 0 0 0 0 0 1 62 
0 0 0 0 0 0 1 15 
5 0 0 1 0 0 2 18 16 
6 0 0 4 0 0 2 19 17 
5 0 0 5 0 0 2 22 20 
1 0 0 5 0 0 2 24 21 
3 0 0 10 0 0 1 20 
2 0 0 6 0 0 2 24 23 
2 0 0 4 0 0 1 22 
3 0 0 5 0 0 1 23 
10 0 0 5 0 0 1 25 
8 0 0 5 0 0 1 25 
0 0 0 0 0 0 1 62 
0 0 0 0 0 0 2 27 29 
3 0 0 0 1 0 3 33 31 28 
1 0 0 0 6 0 2 36 30 
5 0 0 0 6 0 3 36 35 33 
9 0 0 0 8 0 2 34 32 
8 0 0 0 4 0 2 34 32 
4 0 0 0 6 0 1 35 
8 0 0 0 5 0 1 34 
1 0 0 0 5 0 1 37 
1 0 0 0 7 0 1 37 
7 0 0 0 2 0 1 37 
0 0 0 0 0 0 1 62 
0 0 0 0 0 0 4 39 40 41 45 
5 0 0 2 0 0 3 48 47 42 
2 0 0 6 0 0 2 48 43 
4 0 0 6 0 0 2 47 43 
10 0 0 5 0 0 1 43 
5 0 0 4 0 0 1 44 
3 0 0 5 0 0 1 46 
9 0 0 4 0 0 1 46 
3 0 0 3 0 0 1 49 
1 0 0 5 0 0 1 49 
6 0 0 10 0 0 1 49 
0 0 0 0 0 0 1 62 
0 0 0 0 0 0 3 51 54 60 
1 0 0 0 0 1 2 53 52 
6 0 0 0 0 9 2 59 56 
6 0 0 0 0 4 2 57 55 
5 0 0 0 0 8 2 57 55 
8 0 0 0 0 2 2 59 58 
5 0 0 0 0 4 1 57 
9 0 0 0 0 10 1 58 
8 0 0 0 0 3 1 61 
2 0 0 0 0 5 1 61 
7 0 0 0 0 4 1 61 
0 0 0 0 0 0 1 62 
0 0 0 0 0 0 5 63 75 87 99 111 
0 0 0 0 0 0 3 64 65 66 
8 1 0 0 0 0 3 69 68 67 
2 7 0 0 0 0 3 69 68 67 
5 5 0 0 0 0 2 69 68 
3 7 0 0 0 0 2 73 70 
2 3 0 0 0 0 1 70 
1 3 0 0 0 0 2 73 72 
7 4 0 0 0 0 1 71 
6 10 0 0 0 0 1 72 
9 4 0 0 0 0 1 74 
3 6 0 0 0 0 1 74 
0 0 0 0 0 0 1 123 
0 0 0 0 0 0 3 76 78 79 
7 0 1 0 0 0 2 80 77 
1 0 4 0 0 0 3 85 83 81 
6 0 6 0 0 0 1 80 
9 0 5 0 0 0 1 80 
5 0 3 0 0 0 2 85 84 
7 0 9 0 0 0 1 82 
5 0 2 0 0 0 1 84 
7 0 4 0 0 0 1 84 
6 0 10 0 0 0 1 86 
9 0 6 0 0 0 1 86 
0 0 0 0 0 0 1 123 
0 0 0 0 0 0 3 88 89 93 
7 1 0 0 0 0 3 94 92 91 
2 5 0 0 0 0 1 90 
3 2 0 0 0 0 1 91 
3 6 0 0 0 0 2 97 95 
7 4 0 0 0 0 2 97 95 
4 7 0 0 0 0 2 97 95 
1 8 0 0 0 0 1 95 
8 3 0 0 0 0 1 96 
7 6 0 0 0 0 1 98 
1 8 0 0 0 0 1 98 
0 0 0 0 0 0 1 123 
0 0 0 0 0 0 5 100 103 107 108 109 
5 0 0 0 1 0 2 106 101 
4 0 0 0 4 0 1 102 
9 0 0 0 7 0 1 104 
3 0 0 0 6 0 1 104 
9 0 0 0 3 0 1 105 
5 0 0 0 5 0 1 110 
1 0 0 0 3 0 1 110 
7 0 0 0 9 0 1 110 
5 0 0 0 6 0 1 110 
3 0 0 0 6 0 1 110 
0 0 0 0 0 0 1 123 
0 0 0 0 0 0 3 112 116 121 
7 0 0 0 0 1 2 115 113 
1 0 0 0 0 6 1 114 
4 0 0 0 0 3 3 120 119 117 
8 0 0 0 0 8 3 120 119 117 
10 0 0 0 0 5 2 119 118 
1 0 0 0 0 3 1 118 
1 0 0 0 0 4 1 122 
9 0 0 0 0 5 1 122 
9 0 0 0 0 8 1 122 
5 0 0 0 0 7 1 122 
0 0 0 0 0 0 1 123 
0 0 0 0 0 0 5 124 156 188 220 232 
0 0 0 0 0 0 3 125 126 132 
6 1 0 1 1 0 2 136 127 
6 7 0 4 7 0 2 136 127 
9 6 0 7 5 0 2 131 128 
7 4 0 5 3 0 2 134 129 
9 4 0 6 2 0 1 130 
3 6 0 5 2 0 3 140 139 133 
5 6 0 6 6 0 2 140 134 
8 6 0 5 2 0 2 136 135 
10 5 0 3 4 0 1 135 
3 9 0 4 6 0 1 135 
7 1 0 3 2 0 3 145 143 137 
5 4 0 9 2 0 3 145 140 137 
1 4 0 5 4 0 1 138 
3 7 0 7 6 0 2 147 141 
2 8 0 4 5 0 2 147 141 
10 6 0 6 8 0 1 141 
6 7 0 5 7 0 1 142 
9 6 0 5 5 0 1 144 
3 5 0 3 7 0 1 144 
6 5 0 5 10 0 3 154 149 146 
2 6 0 5 3 0 2 154 146 
6 6 0 3 10 0 4 153 152 150 148 
7 5 0 3 6 0 2 150 148 
1 2 0 6 7 0 1 151 
6 2 0 7 4 0 1 150 
4 4 0 5 3 0 1 155 
4 4 0 8 4 0 1 155 
6 4 0 4 5 0 1 155 
3 6 0 5 7 0 1 155 
10 4 0 6 7 0 1 155 
0 0 0 0 0 0 1 424 
0 0 0 0 0 0 3 157 158 160 
7 3 0 1 0 1 2 165 159 
8 1 0 5 0 7 2 165 159 
6 5 0 7 0 7 2 163 161 
9 3 0 4 0 3 3 165 164 163 
8 4 0 4 0 6 1 162 
2 6 0 7 0 6 2 166 164 
4 5 0 6 0 4 2 168 166 
7 8 0 5 0 5 3 173 168 167 
6 5 0 2 0 5 1 166 
3 5 0 6 0 2 2 173 167 
3 5 0 5 0 4 1 169 
10 5 0 5 0 6 1 169 
3 5 0 1 0 5 2 174 170 
7 4 0 3 0 6 2 172 171 
2 5 0 6 0 7 2 178 175 
5 8 0 4 0 6 2 178 175 
5 8 0 5 0 5 1 174 
8 6 0 5 0 7 1 175 
6 4 0 5 0 5 1 176 
3 3 0 4 0 4 1 177 
3 10 0 4 0 5 2 181 179 
10 3 0 4 0 4 1 179 
4 5 0 7 0 4 5 186 185 184 182 180 
3 8 0 10 0 3 1 183 
3 8 0 7 0 7 1 182 
8 3 0 4 0 5 1 187 
10 7 0 7 0 3 1 187 
6 4 0 5 0 5 1 187 
7 1 0 4 0 9 1 187 
1 3 0 8 0 4 1 187 
0 0 0 0 0 0 1 424 
0 0 0 0 0 0 3 189 195 218 
6 0 1 1 0 1 2 217 190 
9 0 2 1 0 6 2 215 191 
2 0 3 5 0 5 1 192 
5 0 3 7 0 4 3 214 213 193 
8 0 7 4 0 6 1 194 
3 0 8 5 0 7 4 212 211 210 196 
1 0 3 7 0 8 6 216 213 211 210 209 200 
10 0 2 2 0 5 1 197 
6 0 3 10 0 10 2 209 198 
7 0 7 5 0 7 1 199 
7 0 9 5 0 3 1 200 
2 0 1 5 0 4 2 208 201 
1 0 10 5 0 4 4 207 206 205 202 
10 0 9 6 0 8 1 203 
4 0 4 7 0 3 1 204 
2 0 5 6 0 3 1 219 
1 0 9 8 0 4 1 219 
3 0 4 4 0 4 1 219 
5 0 7 3 0 4 1 219 
7 0 5 6 0 2 1 219 
9 0 7 3 0 5 1 219 
8 0 4 3 0 4 1 219 
9 0 2 4 0 2 1 219 
2 0 5 7 0 6 1 219 
7 0 7 10 0 5 1 219 
3 0 6 5 0 6 1 219 
4 0 6 3 0 5 1 219 
8 0 3 2 0 5 1 219 
4 0 3 6 0 7 1 219 
5 0 5 5 0 7 1 219 
0 0 0 0 0 0 1 424 
0 0 0 0 0 0 6 221 226 227 228 229 230 
6 0 0 1 0 0 1 222 
2 0 0 3 0 0 1 223 
3 0 0 3 0 0 1 224 
8 0 0 3 0 0 1 225 
10 0 0 5 0 0 1 231 
1 0 0 9 0 0 1 231 
9 0 0 9 0 0 1 231 
8 0 0 6 0 0 1 231 
3 0 0 5 0 0 1 231 
2 0 0 6 0 0 1 231 
0 0 0 0 0 0 5 264 276 298 320 342 
0 0 0 0 0 0 5 233 259 260 261 262 
4 1 1 0 0 2 2 258 234 
8 6 4 0 0 2 4 257 256 255 235 
9 6 6 0 0 5 2 254 236 
2 2 5 0 0 7 1 237 
2 5 3 0 0 3 1 238 
1 3 3 0 0 5 2 253 239 
6 6 6 0 0 3 3 252 251 240 
4 3 4 0 0 4 1 241 
8 7 8 0 0 7 2 250 242 
7 4 5 0 0 3 1 243 
2 7 2 0 0 5 3 249 248 244 
10 5 3 0 0 3 1 245 
9 4 6 0 0 1 1 246 
3 5 4 0 0 7 1 247 
4 8 4 0 0 3 1 263 
2 4 6 0 0 7 1 263 
2 5 5 0 0 4 1 263 
6 4 4 0 0 6 1 263 
4 3 2 0 0 5 1 263 
1 3 3 0 0 7 1 263 
3 6 5 0 0 7 1 263 
2 5 6 0 0 3 1 263 
9 4 6 0 0 7 1 263 
4 3 8 0 0 6 1 263 
6 8 7 0 0 10 1 263 
6 4 9 0 0 6 1 263 
3 5 10 0 0 7 1 263 
5 7 5 0 0 2 1 263 
9 9 7 0 0 7 1 263 
7 8 3 0 0 6 1 263 
0 0 0 0 0 0 1 424 
0 0 0 0 0 0 3 265 269 274 
8 0 0 1 0 0 2 267 266 
3 0 0 3 0 0 3 273 271 268 
7 0 0 6 0 0 3 273 271 268 
5 0 0 10 0 0 1 270 
2 0 0 7 0 0 1 270 
6 0 0 5 0 0 1 272 
6 0 0 4 0 0 1 272 
7 0 0 3 0 0 1 275 
10 0 0 7 0 0 1 275 
7 0 0 4 0 0 1 275 
0 0 0 0 0 0 5 364 376 388 400 412 
0 0 0 0 0 0 3 277 280 283 
10 0 1 0 0 1 2 285 278 
9 0 9 0 0 3 2 296 279 
3 0 6 0 0 5 3 295 286 281 
8 0 3 0 0 5 4 292 291 287 285 
9 0 6 0 0 7 1 282 
1 0 5 0 0 7 2 291 284 
1 0 5 0 0 4 2 287 285 
2 0 1 0 0 4 3 294 289 287 
3 0 6 0 0 4 2 294 289 
8 0 8 0 0 1 1 287 
8 0 7 0 0 4 1 288 
1 0 1 0 0 4 1 290 
4 0 6 0 0 5 1 290 
6 0 5 0 0 9 1 293 
2 0 6 0 0 5 1 294 
3 0 10 0 0 6 1 295 
2 0 3 0 0 8 1 297 
4 0 3 0 0 4 1 297 
7 0 4 0 0 6 1 297 
6 0 5 0 0 8 1 297 
0 0 0 0 0 0 1 424 
0 0 0 0 0 0 3 299 301 305 
5 1 0 0 0 1 1 300 
8 3 0 0 0 4 3 313 308 302 
4 1 0 0 0 5 3 313 308 302 
6 3 0 0 0 4 4 318 317 312 303 
1 7 0 0 0 6 2 311 304 
5 6 0 0 0 4 3 316 315 306 
10 7 0 0 0 4 2 315 307 
6 4 0 0 0 5 1 307 
5 3 0 0 0 1 1 309 
3 5 0 0 0 8 2 317 315 
2 4 0 0 0 4 1 310 
5 6 0 0 0 6 1 314 
2 7 0 0 0 4 1 315 
4 6 0 0 0 7 1 316 
8 2 0 0 0 3 1 317 
8 6 0 0 0 7 1 319 
6 7 0 0 0 7 1 319 
3 8 0 0 0 8 1 319 
8 9 0 0 0 5 1 319 
7 5 0 0 0 7 1 319 
0 0 0 0 0 0 1 424 
0 0 0 0 0 0 2 321 322 
6 0 1 1 0 0 2 325 324 
7 0 6 6 0 0 2 327 323 
8 0 5 9 0 0 1 325 
4 0 5 2 0 0 3 332 328 327 
5 0 6 6 0 0 2 330 326 
3 0 6 4 0 0 3 334 332 328 
1 0 1 7 0 0 2 334 330 
6 0 6 6 0 0 1 329 
7 0 9 5 0 0 2 333 331 
8 0 6 9 0 0 2 333 331 
9 0 6 5 0 0 3 337 336 335 
9 0 3 5 0 0 3 340 336 335 
4 0 6 6 0 0 2 340 338 
2 0 4 3 0 0 1 335 
8 0 6 5 0 0 1 338 
2 0 4 2 0 0 1 338 
3 0 6 6 0 0 1 338 
5 0 3 3 0 0 1 339 
4 0 4 4 0 0 1 341 
10 0 7 6 0 0 1 341 
0 0 0 0 0 0 1 424 
0 0 0 0 0 0 4 343 360 361 362 
10 3 0 1 0 0 4 359 358 357 344 
5 3 0 8 0 0 2 356 345 
7 5 0 5 0 0 1 346 
4 4 0 3 0 0 2 355 347 
5 5 0 2 0 0 3 354 353 348 
8 5 0 8 0 0 1 349 
10 5 0 7 0 0 1 350 
4 5 0 6 0 0 1 351 
5 5 0 5 0 0 1 352 
1 6 0 5 0 0 1 363 
6 4 0 4 0 0 1 363 
10 8 0 7 0 0 1 363 
10 6 0 5 0 0 1 363 
4 8 0 2 0 0 1 363 
5 3 0 6 0 0 1 363 
10 3 0 5 0 0 1 363 
7 2 0 3 0 0 1 363 
4 7 0 6 0 0 1 363 
8 10 0 7 0 0 1 363 
5 3 0 5 0 0 1 363 
0 0 0 0 0 0 1 424 
0 0 0 0 0 0 4 365 367 373 374 
3 0 0 0 0 1 1 366 
7 0 0 0 0 7 3 372 371 368 
2 0 0 0 0 2 2 371 368 
10 0 0 0 0 4 1 369 
5 0 0 0 0 8 1 370 
9 0 0 0 0 5 1 375 
5 0 0 0 0 9 1 375 
6 0 0 0 0 6 1 375 
7 0 0 0 0 5 1 375 
7 0 0 0 0 3 1 375 
0 0 0 0 0 0 1 424 
0 0 0 0 0 0 2 377 379 
4 0 0 0 2 0 1 378 
6 0 0 0 5 0 2 386 380 
6 0 0 0 6 0 2 382 381 
7 0 0 0 5 0 3 385 384 382 
3 0 0 0 5 0 3 385 384 383 
8 0 0 0 2 0 1 383 
6 0 0 0 8 0 1 387 
5 0 0 0 2 0 1 387 
7 0 0 0 5 0 1 387 
10 0 0 0 10 0 1 387 
0 0 0 0 0 0 1 424 
0 0 0 0 0 0 5 389 391 393 394 396 
10 0 0 0 0 1 2 398 390 
8 0 0 0 0 6 1 392 
10 0 0 0 0 3 2 398 397 
4 0 0 0 0 8 1 395 
2 0 0 0 0 4 1 395 
4 0 0 0 0 9 1 395 
4 0 0 0 0 3 1 397 
9 0 0 0 0 5 1 397 
4 0 0 0 0 4 1 399 
5 0 0 0 0 7 1 399 
0 0 0 0 0 0 1 424 
0 0 0 0 0 0 3 401 402 404 
8 0 0 1 0 0 2 405 403 
2 0 0 6 0 0 2 409 403 
4 0 0 6 0 0 2 410 406 
5 0 0 8 0 0 1 405 
8 0 0 4 0 0 2 409 407 
6 0 0 4 0 0 1 407 
10 0 0 4 0 0 1 408 
1 0 0 6 0 0 1 411 
2 0 0 7 0 0 1 411 
6 0 0 4 0 0 1 411 
0 0 0 0 0 0 1 424 
0 0 0 0 0 0 3 413 414 417 
3 0 1 0 0 0 2 419 418 
5 0 3 0 0 0 1 415 
7 0 7 0 0 0 1 416 
7 0 5 0 0 0 2 422 420 
8 0 7 0 0 0 2 422 420 
4 0 6 0 0 0 2 422 421 
5 0 3 0 0 0 1 420 
1 0 2 0 0 0 1 421 
1 0 10 0 0 0 1 423 
5 0 6 0 0 0 1 423 
0 0 0 0 0 0 1 424 
0 0 0 0 0 0 0 
